NAME : amz0572.158399_156899.tour
COMMENT : Cost = 158399_156899
COMMENT : Found by LKH-AMZ [Keld Helsgaun] Sun May 11 12:35:22 2025
COMMENT : TW viol.: 0 #: 0
TYPE : TOUR
DIMENSION : 165
TOUR_SECTION
110
155
16
89
85
104
136
140
55
102
132
149
125
90
153
128
13
19
61
105
122
130
152
121
115
93
48
23
88
45
114
134
70
113
119
158
49
26
103
148
141
135
151
22
75
4
79
17
58
91
82
52
14
160
1
68
38
129
117
34
62
72
57
150
47
120
40
96
145
118
87
156
137
108
111
109
106
84
51
59
159
32
139
73
138
164
99
30
54
64
50
53
80
11
29
86
8
33
101
74
81
133
42
77
46
107
163
39
10
67
60
31
127
2
43
78
12
9
37
142
21
165
15
112
97
116
92
100
27
20
124
123
28
7
94
154
143
63
41
157
25
147
69
36
24
95
83
18
35
56
3
146
71
161
5
162
66
65
98
44
126
144
6
76
131
-1
EOF
